Traveling Salesman Problem/TSP_generados/Aleatorio1621103351_11.tsp
NAME: Aleatorio1621103351_11.tsp
COMMENT: Randomly generated scenario
TYPE: TSP
DIMENSION: 11
EDGE_WEIGHT_TYPE: ATT
NODE_COORD_SECTION
1 45.07 19.48
2 6.91 4.05
3 12.96 2.26
4 8.38 30.54
5 22.61 48.28
6 30.79 21.2
7 6.87 46.06
8 1.9 42.25
9 45.29 15.25
10 12.38 17.97
11 25.35 17.51
