Traveling Salesman Problem/TSP_generados/Aleatorio1621103351_11.opt.tour
NAME: Aleatorio1621103351_11.opt.tour
COMMENT: Optimal solution for Aleatorio1621103351_11 (152.65171108839453)
TYPE: TOUR
DIMENSION: 11
TOUR_SECTION
1 5 7 8 4 10 2 3 11 6 9
-1
EOF
